data/solutions/recovery/wellformed/intermediate/binding/wellformed_intermediate_instance84/23.sol
Elapsed time: 0.16
Upper bound: 158836.0
Planning weighted value: 8325019310.0
C[0]=158836.0
C[1]=158769.0
C[2]=158661.0
C[3]=158367.0
C[4]=157858.0
C[5]=157742.0
C[6]=157725.0
C[7]=157684.0
C[8]=156570.0
C[9]=156205.0
C[10]=155418.0
C[11]=154345.0
C[12]=154055.0
C[13]=152683.0
C[14]=0.0
C[15]=0.0
y[0]=0
y[1]=13
y[2]=12
y[3]=10
y[4]=9
y[5]=11
y[6]=4
y[7]=0
y[8]=7
y[9]=3
y[10]=7
y[11]=12
y[12]=6
y[13]=9
y[14]=6
y[15]=2
y[16]=9
y[17]=4
y[18]=13
y[19]=7
y[20]=4
y[21]=4
y[22]=13
y[23]=2
y[24]=2
y[25]=2
y[26]=5
y[27]=11
y[28]=0
y[29]=7
y[30]=11
y[31]=8
y[32]=1
y[33]=0
y[34]=2
y[35]=2
y[36]=7
y[37]=2
y[38]=9
y[39]=11
y[40]=0
y[41]=11
y[42]=2
y[43]=2
y[44]=3
y[45]=0
y[46]=3
y[47]=10
y[48]=10
y[49]=11
y[50]=6
y[51]=1
y[52]=5
y[53]=6
y[54]=9
y[55]=2
y[56]=2
y[57]=2
y[58]=7
y[59]=8
y[60]=2
y[61]=0
y[62]=0
y[63]=6
y[64]=4
y[65]=8
y[66]=12
y[67]=7
y[68]=8
y[69]=11
y[70]=8
y[71]=2
y[72]=11
y[73]=1
y[74]=6
y[75]=4
y[76]=2
y[77]=6
y[78]=6
y[79]=0
y[80]=4
y[81]=0
y[82]=9
y[83]=2
y[84]=5
y[85]=12
y[86]=6
y[87]=10
y[88]=13
y[89]=11
y[90]=6
y[91]=3
y[92]=0
y[93]=6
y[94]=9
y[95]=8
y[96]=8
y[97]=10
y[98]=12
y[99]=0
y[100]=8
y[101]=4
y[102]=4
y[103]=2
y[104]=2
y[105]=0
y[106]=10
y[107]=13
y[108]=6
y[109]=12
y[110]=2
y[111]=8
y[112]=0
y[113]=2
y[114]=2
y[115]=0
y[116]=10
y[117]=0
y[118]=12
y[119]=13
y[120]=6
y[121]=4
y[122]=9
y[123]=2
y[124]=9
y[125]=3
y[126]=8
y[127]=0
y[128]=2
y[129]=12
y[130]=4
y[131]=2
y[132]=2
y[133]=9
y[134]=2
y[135]=5
y[136]=4
y[137]=2
y[138]=12
y[139]=13
y[140]=2
y[141]=1
y[142]=3
y[143]=10
y[144]=5
y[145]=7
y[146]=1
y[147]=5
y[148]=7
y[149]=0
y[150]=0
y[151]=9
y[152]=0
y[153]=4
y[154]=2
y[155]=4
y[156]=7
y[157]=2
y[158]=0
y[159]=10
y[160]=6
y[161]=11
y[162]=11
y[163]=0
y[164]=5
y[165]=4
y[166]=2
y[167]=4
y[168]=11
y[169]=0
y[170]=4
y[171]=3
y[172]=4
y[173]=2
y[174]=10
y[175]=11
y[176]=6
y[177]=2
y[178]=3
y[179]=1
y[180]=1
y[181]=8
y[182]=0
y[183]=8
y[184]=5
y[185]=13
y[186]=2
y[187]=4
y[188]=8
y[189]=1
y[190]=9
y[191]=0
y[192]=5
y[193]=3
y[194]=2
y[195]=3
y[196]=10
y[197]=13
y[198]=2
y[199]=2
y[200]=12
y[201]=11
y[202]=6
y[203]=12
y[204]=13
y[205]=5
y[206]=7
y[207]=10
y[208]=7
y[209]=13
y[210]=1
y[211]=13
y[212]=1
y[213]=4
